job_count = 22 ;
duration = [|14, 10, 7|21, 8, 5|14, 8, 1|25, 15, 3|20, 2, 8|11, 10, 7|24, 18, 6|28, 5, 8|25, 13, 8|24, 8, 1|7, 12, 7|28, 19, 8|6, 7, 9|24, 14, 8|11, 2, 3|4, 4, 7|7, 14, 9|16, 10, 6|29, 18, 7|27, 11, 7|23, 4, 8|10, 15, 7|] ;
machine_count = 3 ;
cost = [|15, 35, 46|10, 34, 35|14, 33, 56|18, 20, 53|11, 34, 34|14, 37, 37|12, 23, 52|12, 32, 42|11, 23, 51|19, 27, 38|10, 38, 43|11, 37, 35|19, 29, 58|13, 27, 32|18, 39, 57|15, 22, 35|19, 22, 51|12, 22, 37|13, 31, 37|13, 36, 44|14, 21, 53|14, 22, 30|] ;
deadline = [49, 49, 49, 49, 49, 49, 49, 49, 49, 49, 49, 49, 49, 49, 49, 49, 49, 49, 49, 49, 49, 49] ;
release = [0, 0, 0, 0, 0, 0, 0, 0, 0, 0, 0, 0, 0, 0, 0, 0, 0, 0, 0, 0, 0, 0] ;
resource = [|6, 6, 6|7, 7, 7|4, 4, 4|5, 5, 5|8, 8, 8|6, 6, 6|1, 1, 1|9, 9, 9|8, 8, 8|3, 3, 3|9, 9, 9|1, 1, 1|8, 8, 8|6, 6, 6|5, 5, 5|5, 5, 5|2, 2, 2|6, 6, 6|1, 1, 1|3, 3, 3|2, 2, 2|9, 9, 9|] ;
capacities = [10, 10, 10] ;
